p cnf 115 385
3 1 0
3 -2 0
-1 2 -3 0
4 5 -6 0
-4 -5 -6 0
4 -5 6 0
-4 5 6 0
-7 5 -8 0
7 -5 -8 0
-7 -5 8 0
7 5 8 0
9 -6 0
9 -8 0
6 8 -9 0
-10 -6 0
-10 -9 0
6 9 10 0
-11 3 0
-11 10 0
-3 -10 11 0
-13 -12 0
-13 7 0
12 -7 13 0
-16 -14 0
-16 15 0
14 -15 16 0
-18 -12 0
-18 -17 0
12 17 18 0
-19 16 0
-19 -18 0
-16 18 19 0
-20 -1 0
-20 -19 0
1 19 20 0
21 20 0
21 16 0
-20 -16 -21 0
22 13 0
22 -21 0
-13 21 -22 0
-24 1 0
-24 -15 0
-1 15 24 0
-25 -23 0
-25 -24 0
23 24 25 0
26 -22 0
26 25 0
22 -25 -26 0
11 -26 -27 0
-11 26 -27 0
11 26 27 0
-11 -26 27 0
-29 28 0
-29 18 0
-28 -18 29 0
30 8 0
30 -4 0
-8 4 -30 0
-31 24 0
-31 20 0
-24 -20 31 0
-33 -18 0
-33 3 0
18 -3 33 0
-34 -32 0
-34 -33 0
32 33 34 0
35 31 0
35 -34 0
-31 34 -35 0
-36 30 0
-36 -35 0
-30 35 36 0
37 29 0
37 -36 0
-29 36 -37 0
-38 -27 0
-38 37 0
27 -37 38 0
-39 -35 0
-39 -14 0
35 14 39 0
-41 -40 0
-41 -40 0
40 41 0
33 -41 -42 0
-33 41 -42 0
33 41 42 0
-33 -41 42 0
-43 -5 -44 0
43 5 -44 0
-43 5 44 0
43 -5 44 0
44 -4 -45 0
-44 4 -45 0
44 4 45 0
-44 -4 45 0
42 -45 -46 0
-42 45 -46 0
42 45 46 0
-42 -45 46 0
-47 -46 0
-47 -12 0
46 12 47 0
48 -39 0
48 47 0
39 -47 -48 0
18 -3 -49 0
-18 3 -49 0
18 3 49 0
-18 -3 49 0
43 -9 -50 0
-43 9 -50 0
43 9 50 0
-43 -9 50 0
52 50 0
52 51 0
-50 -51 -52 0
53 49 0
53 -52 0
-49 52 -53 0
-54 -48 0
-54 -53 0
48 53 54 0
-55 -38 0
-55 54 0
38 -54 55 0
-57 -56 0
-57 7 0
56 -7 57 0
-16 14 -58 0
16 -14 -58 0
-16 -14 58 0
16 14 58 0
59 4 0
59 -16 0
-4 16 -59 0
60 -58 0
60 -59 0
58 59 -60 0
-61 -4 0
-61 7 0
4 -7 61 0
62 -61 0
62 -40 0
61 40 -62 0
-60 -62 -63 0
60 62 -63 0
-60 62 63 0
60 -62 63 0
-64 56 0
-64 -8 0
-56 8 64 0
-65 16 0
-65 30 0
-16 -30 65 0
-64 -65 -66 0
64 65 -66 0
-64 65 66 0
64 -65 66 0
-32 -61 -67 0
32 61 -67 0
-32 61 67 0
32 -61 67 0
68 -67 0
68 -7 0
67 7 -68 0
-66 68 -69 0
66 -68 -69 0
-66 -68 69 0
66 68 69 0
63 69 -70 0
-63 -69 -70 0
63 -69 70 0
-63 69 70 0
71 -57 0
71 -70 0
57 70 -71 0
-41 6 -72 0
41 -6 -72 0
-41 -6 72 0
41 6 72 0
-15 -72 -73 0
15 72 -73 0
-15 72 73 0
15 -72 73 0
-73 -2 -74 0
73 2 -74 0
-73 2 74 0
73 -2 74 0
75 -10 0
75 74 0
10 -74 -75 0
76 71 0
76 75 0
-71 -75 -76 0
55 76 -77 0
-55 -76 -77 0
55 -76 77 0
-55 76 77 0
-78 -42 0
-78 73 0
42 -73 78 0
79 -7 0
79 33 0
7 -33 -79 0
79 -30 -80 0
-79 30 -80 0
79 30 80 0
-79 -30 80 0
80 3 -81 0
-80 -3 -81 0
80 -3 81 0
-80 3 81 0
82 78 0
82 81 0
-78 -81 -82 0
-83 43 0
-83 -5 0
-43 5 83 0
-84 65 0
-84 83 0
-65 -83 84 0
-85 -84 0
-85 12 0
84 -12 85 0
19 -85 -86 0
-19 85 -86 0
19 85 86 0
-19 -85 86 0
-87 -9 0
-87 -7 0
9 7 87 0
-86 87 -88 0
86 -87 -88 0
-86 -87 88 0
86 87 88 0
-89 16 0
-89 51 0
-16 -51 89 0
90 89 0
90 -33 0
-89 33 -90 0
-88 90 -91 0
88 -90 -91 0
-88 -90 91 0
88 90 91 0
16 6 -92 0
-16 -6 -92 0
16 -6 92 0
-16 6 92 0
-73 92 -93 0
73 -92 -93 0
-73 -92 93 0
73 92 93 0
-85 67 -94 0
85 -67 -94 0
-85 -67 94 0
85 67 94 0
-95 -94 0
-95 -65 0
94 65 95 0
-96 93 0
-96 95 0
-93 -95 96 0
-9 89 -97 0
9 -89 -97 0
-9 -89 97 0
9 89 97 0
96 97 -98 0
-96 -97 -98 0
96 -97 98 0
-96 97 98 0
-44 31 -99 0
44 -31 -99 0
-44 -31 99 0
44 31 99 0
100 98 0
100 99 0
-98 -99 -100 0
101 91 0
101 -100 0
-91 100 -101 0
7 -42 -102 0
-7 42 -102 0
7 42 102 0
-7 -42 102 0
103 35 0
103 43 0
-35 -43 -103 0
104 -102 0
104 103 0
102 -103 -104 0
-79 104 -105 0
79 -104 -105 0
-79 -104 105 0
79 104 105 0
-106 -34 0
-106 -20 0
34 20 106 0
107 -80 0
107 -106 0
80 106 -107 0
108 -85 0
108 61 0
85 -61 -108 0
109 -44 0
109 33 0
44 -33 -109 0
-108 -109 -110 0
108 109 -110 0
-108 109 110 0
108 -109 110 0
107 -110 -111 0
-107 110 -111 0
107 110 111 0
-107 -110 111 0
-105 -111 -112 0
105 111 -112 0
-105 111 112 0
105 -111 112 0
-113 101 0
-113 -112 0
-101 112 113 0
-82 -113 -114 0
82 113 -114 0
-82 113 114 0
82 -113 114 0
77 114 -115 0
-77 -114 -115 0
77 -114 115 0
-77 114 115 0
-56 65 -4 26 105 0
-105 -68 0
51 80 0
-43 -110 96 -64 -31 0
-53 -10 96 -64 98 84 0
-43 -88 85 -115 49 100 0
31 -61 62 90 89 -46 0
5 79 -10 0
40 -21 -88 0
108 111 0
84 5 -87 50 0
64 108 0
-21 20 18 101 0
64 -33 10 0
96 52 -44 0
-57 37 105 0
-70 52 61 -75 93 0
63 -61 0
50 -32 43 -112 0
-47 92 -110 0
103 77 0
14 83 95 113 -20 -102 0
91 -57 0
43 -47 8 -100 0
-46 -66 45 -38 0
78 -31 0
31 -58 -24 17 -81 0
7 53 80 -112 28 0
82 16 26 -19 0
-44 13 -37 0
21 -103 89 34 93 0
22 106 99 0
-20 10 19 0
50 109 7 -68 92 0
74 64 65 8 -108 0
53 24 1 0
57 16 -50 90 0
86 -23 58 0
73 11 0
-3 53 -109 -61 0
91 -17 75 64 0
67 3 45 102 0
86 65 0
48 -112 58 0
-97 106 32 25 5 0
74 23 -60 -73 0
53 59 0
56 -35 19 0
-84 -42 113 -77 -8 -21 0
105 44 -26 34 -83 66 0
115 0
